\Problem name: 

Minimize
obj: 500 x0 + 500 x3 + 500 x6 + 500 x9 + 500 x12 + 500 x15 + 500 x18 + 500 x21 + 500 x24 -100 x26
 + 500 x27 + 500 x30 + 500 x33 + 500 x36 + 500 x39 + 500 x42 + 500 x45 + 500 x48 + 500 x51 + 500 x54
 + 500 x57 + 500 x60 + 500 x64 + 500 x67 + 500 x70 + 500 x73 + 500 x76 + 500 x79 + 500 x82 + 500 x85
 + 500 x88 + 500 x91 -100 x92 + 500 x94 + 500 x97 + 500 x100 + 500 x103 + 500 x106 + 500 x109 + 500 x112
 + 500 x115 + 500 x118 + 500 x121 + 500 x124 + 500 x127 + 500 x130 + 500 x133 + 500 x136 + 500 x139 + 500 x142
 + 500 x145 + 500 x148 + 500 x151 + 500 x154 + 500 x157 + 500 x160 + 500 x163 + 500 x166 + 500 x169 + 500 x172
 + 500 x175 + 500 x178 + 500 x181 + 500 x184 + 500 x187 + 500 x190 + 500 x193 + 500 x196 + 500 x199 + 500 x202
 + 500 x205 + 500 x208 + 500 x211 + 500 x214 + 500 x217 + 500 x220 + 500 x223 + 500 x226 + 500 x229 + 500 x232
 + 500 x235 + 500 x238 + 500 x241 + 500 x244 + 500 x247 + 500 x250 + 500 x253 + 500 x256 + 500 x259 + 500 x262
 + 500 x265 + 500 x268 + 500 x271 + 500 x274 + 500 x277 + 500 x280 + 500 x283 + 500 x286 + 500 x289 + 500 x292
 + 400 x298 + 400 x303 + 400 x308 + 400 x313 + 400 x318 + 400 x323 + 200 x324 + 200 x325 + 200 x326 + 200 x327
 + 200 x328 + 200 x329 + 200 x330 + 200 x331 + 200 x332 + 200 x333 + 200 x334 + 200 x335 + 200 x336 + 200 x337
 + 200 x338 + 200 x339 + 200 x340 + 200 x341 + 200 x342 + 200 x343 + 200 x344 + 200 x345 + 200 x346 + 200 x347
 + 200 x348 + 200 x349 + 200 x350 + 200 x351 + 200 x352 + 200 x353 + 200 x354 + 200 x355 + 200 x356 + 200 x357
 + 200 x358 + 200 x359 + 200 x360 + 200 x361 + 200 x362 + 200 x363 + 200 x364 + 200 x365 + 300 x366 + 300 x367
 + 300 x368 + 300 x369 + 300 x370 + 300 x371 + 300 x372 + 300 x373 + 300 x374 + 300 x375 + 300 x376 + 300 x377
 + 300 x378 + 300 x379 + 500 x380 + 500 x381 + 500 x382 + 500 x383 + 500 x384 + 500 x385 + 500 x386 + 500 x387
 + 500 x388 + 500 x389 + 500 x390 + 500 x391 + 500 x392 + 500 x393
Subject To
cons0:  x0 + x1 + x2 = 1
cons1:  x3 + x4 + x5 = 1
cons2:  x6 + x7 + x8 = 1
cons3:  x9 + x10 + x11 = 1
cons4:  x12 + x13 + x14 = 1
cons5:  x15 + x16 + x17 = 1
cons6:  x18 + x19 + x20 = 1
cons7:  x21 + x22 + x23 = 1
cons8:  x24 + x25 + x26 = 1
cons9:  x27 + x28 + x29 = 1
cons10:  x30 + x31 + x32 = 1
cons11:  x33 + x34 + x35 = 1
cons12:  x36 + x37 + x38 = 1
cons13:  x39 + x40 + x41 = 1
cons14:  x42 + x43 + x44 = 1
cons15:  x45 + x46 + x47 = 1
cons16:  x48 + x49 + x50 = 1
cons17:  x51 + x52 + x53 = 1
cons18:  x54 + x55 + x56 = 1
cons19:  x57 + x58 + x59 = 1
cons20:  x60 + x61 + x62 = 1
cons21:  x63 + x64 + x65 = 1
cons22:  x66 + x67 + x68 = 1
cons23:  x69 + x70 + x71 = 1
cons24:  x72 + x73 + x74 = 1
cons25:  x75 + x76 + x77 = 1
cons26:  x78 + x79 + x80 = 1
cons27:  x81 + x82 + x83 = 1
cons28:  x84 + x85 + x86 = 1
cons29:  x87 + x88 + x89 = 1
cons30:  x90 + x91 + x92 = 1
cons31:  x93 + x94 + x95 = 1
cons32:  x96 + x97 + x98 = 1
cons33:  x99 + x100 + x101 = 1
cons34:  x102 + x103 + x104 = 1
cons35:  x105 + x106 + x107 = 1
cons36:  x108 + x109 + x110 = 1
cons37:  x111 + x112 + x113 = 1
cons38:  x114 + x115 + x116 = 1
cons39:  x117 + x118 + x119 = 1
cons40:  x120 + x121 + x122 = 1
cons41:  x123 + x124 + x125 = 1
cons42:  x126 + x127 + x128 = 1
cons43:  x129 + x130 + x131 = 1
cons44:  x132 + x133 + x134 = 1
cons45:  x135 + x136 + x137 = 1
cons46:  x138 + x139 + x140 = 1
cons47:  x141 + x142 + x143 = 1
cons48:  x144 + x145 + x146 = 1
cons49:  x147 + x148 + x149 = 1
cons50:  x150 + x151 + x152 = 1
cons51:  x153 + x154 + x155 = 1
cons52:  x156 + x157 + x158 = 1
cons53:  x159 + x160 + x161 = 1
cons54:  x162 + x163 + x164 = 1
cons55:  x165 + x166 + x167 = 1
cons56:  x168 + x169 + x170 = 1
cons57:  x171 + x172 + x173 = 1
cons58:  x174 + x175 + x176 = 1
cons59:  x177 + x178 + x179 = 1
cons60:  x180 + x181 + x182 = 1
cons61:  x183 + x184 + x185 = 1
cons62:  x186 + x187 + x188 = 1
cons63:  x189 + x190 + x191 = 1
cons64:  x192 + x193 + x194 = 1
cons65:  x195 + x196 + x197 = 1
cons66:  x198 + x199 + x200 = 1
cons67:  x201 + x202 + x203 = 1
cons68:  x204 + x205 + x206 = 1
cons69:  x207 + x208 + x209 = 1
cons70:  x210 + x211 + x212 = 1
cons71:  x213 + x214 + x215 = 1
cons72:  x216 + x217 + x218 = 1
cons73:  x219 + x220 + x221 = 1
cons74:  x222 + x223 + x224 = 1
cons75:  x225 + x226 + x227 = 1
cons76:  x228 + x229 + x230 = 1
cons77:  x231 + x232 + x233 = 1
cons78:  x234 + x235 + x236 = 1
cons79:  x237 + x238 + x239 = 1
cons80:  x240 + x241 + x242 = 1
cons81:  x243 + x244 + x245 = 1
cons82:  x246 + x247 + x248 = 1
cons83:  x249 + x250 + x251 = 1
cons84:  x252 + x253 + x254 = 1
cons85:  x255 + x256 + x257 = 1
cons86:  x258 + x259 + x260 = 1
cons87:  x261 + x262 + x263 = 1
cons88:  x264 + x265 + x266 = 1
cons89:  x267 + x268 + x269 = 1
cons90:  x270 + x271 + x272 = 1
cons91:  x273 + x274 + x275 = 1
cons92:  x276 + x277 + x278 = 1
cons93:  x279 + x280 + x281 = 1
cons94:  x282 + x283 + x284 = 1
cons95:  x285 + x286 + x287 = 1
cons96:  x288 + x289 + x290 = 1
cons97:  x291 + x292 + x293 = 1
cons98:  x59 + x295 <= 1
cons99:  - x62 + x295 <= 0
cons100:  x59 - x62 + x295 >= 0
cons101:  x294 - x295 >= 0
cons102:  - x59 + x296 <= 0
cons103:  x62 + x296 <= 1
cons104:  - x59 + x62 + x296 >= 0
cons105:  x294 - x296 >= 0
cons106:  x59 + x297 <= 1
cons107:  x62 + x297 <= 1
cons108:  x59 + x62 + x297 >= 1
cons109:  x294 - x297 >= 0
cons110:  x294 - x295 - x296 - x297 <= 0
cons111:  x294 - x298 <= 0
cons112:  x80 + x300 <= 1
cons113:  - x83 + x300 <= 0
cons114:  x80 - x83 + x300 >= 0
cons115:  x299 - x300 >= 0
cons116:  - x80 + x301 <= 0
cons117:  x83 + x301 <= 1
cons118:  - x80 + x83 + x301 >= 0
cons119:  x299 - x301 >= 0
cons120:  x80 + x302 <= 1
cons121:  x83 + x302 <= 1
cons122:  x80 + x83 + x302 >= 1
cons123:  x299 - x302 >= 0
cons124:  x299 - x300 - x301 - x302 <= 0
cons125:  x299 - x303 <= 0
cons126:  x143 + x305 <= 1
cons127:  - x146 + x305 <= 0
cons128:  x143 - x146 + x305 >= 0
cons129:  x304 - x305 >= 0
cons130:  - x143 + x306 <= 0
cons131:  x146 + x306 <= 1
cons132:  - x143 + x146 + x306 >= 0
cons133:  x304 - x306 >= 0
cons134:  x143 + x307 <= 1
cons135:  x146 + x307 <= 1
cons136:  x143 + x146 + x307 >= 1
cons137:  x304 - x307 >= 0
cons138:  x304 - x305 - x306 - x307 <= 0
cons139:  x304 - x308 <= 0
cons140:  x164 + x310 <= 1
cons141:  - x167 + x310 <= 0
cons142:  x164 - x167 + x310 >= 0
cons143:  x309 - x310 >= 0
cons144:  - x164 + x311 <= 0
cons145:  x167 + x311 <= 1
cons146:  - x164 + x167 + x311 >= 0
cons147:  x309 - x311 >= 0
cons148:  x164 + x312 <= 1
cons149:  x167 + x312 <= 1
cons150:  x164 + x167 + x312 >= 1
cons151:  x309 - x312 >= 0
cons152:  x309 - x310 - x311 - x312 <= 0
cons153:  x309 - x313 <= 0
cons154:  x185 + x315 <= 1
cons155:  - x188 + x315 <= 0
cons156:  x185 - x188 + x315 >= 0
cons157:  x314 - x315 >= 0
cons158:  - x185 + x316 <= 0
cons159:  x188 + x316 <= 1
cons160:  - x185 + x188 + x316 >= 0
cons161:  x314 - x316 >= 0
cons162:  x185 + x317 <= 1
cons163:  x188 + x317 <= 1
cons164:  x185 + x188 + x317 >= 1
cons165:  x314 - x317 >= 0
cons166:  x314 - x315 - x316 - x317 <= 0
cons167:  x314 - x318 <= 0
cons168:  x269 + x320 <= 1
cons169:  - x272 + x320 <= 0
cons170:  x269 - x272 + x320 >= 0
cons171:  x319 - x320 >= 0
cons172:  - x269 + x321 <= 0
cons173:  x272 + x321 <= 1
cons174:  - x269 + x272 + x321 >= 0
cons175:  x319 - x321 >= 0
cons176:  x269 + x322 <= 1
cons177:  x272 + x322 <= 1
cons178:  x269 + x272 + x322 >= 1
cons179:  x319 - x322 >= 0
cons180:  x319 - x320 - x321 - x322 <= 0
cons181:  x319 - x323 <= 0
cons182:  x1 + x22 + x43 + x64 + x85 + x106 + x127 + x148 + x169 + x190
 + x211 - x325 <= 2
cons183:  x1 + x22 + x43 + x64 + x85 + x106 + x127 + x148 + x169 + x190
 + x211 + x324 >= 2
cons184:  x0 + x21 + x42 + x63 + x84 + x105 + x126 + x147 + x168 + x189
 + x210 - x327 <= 4
cons185:  x0 + x21 + x42 + x63 + x84 + x105 + x126 + x147 + x168 + x189
 + x210 + x326 >= 4
cons186:  x231 + x252 + x273 - x329 <= 1
cons187:  x231 + x252 + x273 + x328 >= 1
cons188:  x4 + x25 + x46 + x67 + x88 + x109 + x130 + x151 + x172 + x193
 + x214 - x331 <= 2
cons189:  x4 + x25 + x46 + x67 + x88 + x109 + x130 + x151 + x172 + x193
 + x214 + x330 >= 2
cons190:  x3 + x24 + x45 + x66 + x87 + x108 + x129 + x150 + x171 + x192
 + x213 - x333 <= 4
cons191:  x3 + x24 + x45 + x66 + x87 + x108 + x129 + x150 + x171 + x192
 + x213 + x332 >= 4
cons192:  x234 + x255 + x276 - x335 <= 1
cons193:  x234 + x255 + x276 + x334 >= 1
cons194:  x7 + x28 + x49 + x70 + x91 + x112 + x133 + x154 + x175 + x196
 + x217 - x337 <= 2
cons195:  x7 + x28 + x49 + x70 + x91 + x112 + x133 + x154 + x175 + x196
 + x217 + x336 >= 2
cons196:  x6 + x27 + x48 + x69 + x90 + x111 + x132 + x153 + x174 + x195
 + x216 - x339 <= 4
cons197:  x6 + x27 + x48 + x69 + x90 + x111 + x132 + x153 + x174 + x195
 + x216 + x338 >= 4
cons198:  x237 + x258 + x279 - x341 <= 1
cons199:  x237 + x258 + x279 + x340 >= 1
cons200:  x10 + x31 + x52 + x73 + x94 + x115 + x136 + x157 + x178 + x199
 + x220 - x343 <= 2
cons201:  x10 + x31 + x52 + x73 + x94 + x115 + x136 + x157 + x178 + x199
 + x220 + x342 >= 2
cons202:  x9 + x30 + x51 + x72 + x93 + x114 + x135 + x156 + x177 + x198
 + x219 - x345 <= 4
cons203:  x9 + x30 + x51 + x72 + x93 + x114 + x135 + x156 + x177 + x198
 + x219 + x344 >= 4
cons204:  x240 + x261 + x282 - x347 <= 1
cons205:  x240 + x261 + x282 + x346 >= 1
cons206:  x13 + x34 + x55 + x76 + x97 + x118 + x139 + x160 + x181 + x202
 + x223 - x349 <= 2
cons207:  x13 + x34 + x55 + x76 + x97 + x118 + x139 + x160 + x181 + x202
 + x223 + x348 >= 2
cons208:  x12 + x33 + x54 + x75 + x96 + x117 + x138 + x159 + x180 + x201
 + x222 - x351 <= 4
cons209:  x12 + x33 + x54 + x75 + x96 + x117 + x138 + x159 + x180 + x201
 + x222 + x350 >= 4
cons210:  x243 + x264 + x285 - x353 <= 1
cons211:  x243 + x264 + x285 + x352 >= 1
cons212:  x16 + x37 + x58 + x79 + x100 + x121 + x142 + x163 + x184 + x205
 + x226 - x355 <= 2
cons213:  x16 + x37 + x58 + x79 + x100 + x121 + x142 + x163 + x184 + x205
 + x226 + x354 >= 2
cons214:  x15 + x36 + x57 + x78 + x99 + x120 + x141 + x162 + x183 + x204
 + x225 - x357 <= 3
cons215:  x15 + x36 + x57 + x78 + x99 + x120 + x141 + x162 + x183 + x204
 + x225 + x356 >= 3
cons216:  x246 + x267 + x288 - x359 <= 1
cons217:  x246 + x267 + x288 + x358 >= 1
cons218:  x19 + x40 + x61 + x82 + x103 + x124 + x145 + x166 + x187 + x208
 + x229 - x361 <= 2
cons219:  x19 + x40 + x61 + x82 + x103 + x124 + x145 + x166 + x187 + x208
 + x229 + x360 >= 2
cons220:  x18 + x39 + x60 + x81 + x102 + x123 + x144 + x165 + x186 + x207
 + x228 - x363 <= 3
cons221:  x18 + x39 + x60 + x81 + x102 + x123 + x144 + x165 + x186 + x207
 + x228 + x362 >= 3
cons222:  x249 + x270 + x291 - x365 <= 1
cons223:  x249 + x270 + x291 + x364 >= 1
cons224:  x1 + x4 + x7 + x10 + x13 + x16 + x19 + x366 >= 5
cons225:  x22 + x25 + x28 + x31 + x34 + x37 + x40 + x367 >= 6
cons226:  x43 + x46 + x49 + x52 + x55 + x58 + x61 + x368 >= 3
cons227:  x63 + x66 + x69 + x72 + x75 + x78 + x81 + x369 >= 3
cons228:  x84 + x87 + x90 + x93 + x96 + x99 + x102 + x370 >= 4
cons229:  x105 + x108 + x111 + x114 + x117 + x120 + x123 + x371 >= 2
cons230:  x126 + x129 + x132 + x135 + x138 + x141 + x144 + x372 >= 3
cons231:  x147 + x150 + x153 + x156 + x159 + x162 + x165 + x373 >= 4
cons232:  x168 + x171 + x174 + x177 + x180 + x183 + x186 + x374 >= 4
cons233:  x189 + x192 + x195 + x198 + x201 + x204 + x207 + x375 >= 3
cons234:  x210 + x213 + x216 + x219 + x222 + x225 + x228 + x376 >= 3
cons235:  x231 + x234 + x237 + x240 + x243 + x246 + x249 + x377 >= 2
cons236:  x252 + x255 + x258 + x261 + x264 + x267 + x270 + x378 >= 3
cons237:  x273 + x276 + x279 + x282 + x285 + x288 + x291 + x379 >= 2
cons238:  x1 + x4 + x7 + x10 + x13 + x16 + x19 - x380 <= 5
cons239:  x22 + x25 + x28 + x31 + x34 + x37 + x40 - x381 <= 6
cons240:  x43 + x46 + x49 + x52 + x55 + x58 + x61 - x382 <= 3
cons241:  x63 + x66 + x69 + x72 + x75 + x78 + x81 - x383 <= 3
cons242:  x84 + x87 + x90 + x93 + x96 + x99 + x102 - x384 <= 4
cons243:  x105 + x108 + x111 + x114 + x117 + x120 + x123 - x385 <= 2
cons244:  x126 + x129 + x132 + x135 + x138 + x141 + x144 - x386 <= 3
cons245:  x147 + x150 + x153 + x156 + x159 + x162 + x165 - x387 <= 4
cons246:  x168 + x171 + x174 + x177 + x180 + x183 + x186 - x388 <= 4
cons247:  x189 + x192 + x195 + x198 + x201 + x204 + x207 - x389 <= 3
cons248:  x210 + x213 + x216 + x219 + x222 + x225 + x228 - x390 <= 3
cons249:  x231 + x234 + x237 + x240 + x243 + x246 + x249 - x391 <= 2
cons250:  x252 + x255 + x258 + x261 + x264 + x267 + x270 - x392 <= 3
cons251:  x273 + x276 + x279 + x282 + x285 + x288 + x291 - x393 <= 2
Bounds
 0 <= x0 <= 1
 0 <= x1 <= 1
 0 <= x2 <= 1
 0 <= x3 <= 1
 0 <= x4 <= 1
 0 <= x5 <= 1
 0 <= x6 <= 1
 0 <= x7 <= 1
 0 <= x8 <= 1
 0 <= x9 <= 1
 0 <= x10 <= 1
 0 <= x11 <= 1
 0 <= x12 <= 1
 0 <= x13 <= 1
 0 <= x14 <= 1
 0 <= x15 <= 1
 0 <= x16 <= 1
 0 <= x17 <= 1
 0 <= x18 <= 1
 0 <= x19 <= 1
 0 <= x20 <= 1
 0 <= x21 <= 1
 0 <= x22 <= 1
 0 <= x23 <= 1
 0 <= x24 <= 1
 0 <= x25 <= 1
 0 <= x26 <= 1
 0 <= x27 <= 1
 0 <= x28 <= 1
 0 <= x29 <= 1
 0 <= x30 <= 1
 0 <= x31 <= 1
 0 <= x32 <= 1
 0 <= x33 <= 1
 0 <= x34 <= 1
 0 <= x35 <= 1
 0 <= x36 <= 1
 0 <= x37 <= 1
 0 <= x38 <= 1
 0 <= x39 <= 1
 0 <= x40 <= 1
 0 <= x41 <= 1
 0 <= x42 <= 1
 0 <= x43 <= 1
 0 <= x44 <= 1
 0 <= x45 <= 1
 0 <= x46 <= 1
 0 <= x47 <= 1
 0 <= x48 <= 1
 0 <= x49 <= 1
 0 <= x50 <= 1
 0 <= x51 <= 1
 0 <= x52 <= 1
 0 <= x53 <= 1
 0 <= x54 <= 1
 0 <= x55 <= 1
 0 <= x56 <= 1
 0 <= x57 <= 1
 0 <= x58 <= 1
 0 <= x59 <= 1
 0 <= x60 <= 1
 0 <= x61 <= 1
 0 <= x62 <= 1
 0 <= x63 <= 1
 0 <= x64 <= 1
 0 <= x65 <= 1
 0 <= x66 <= 1
 0 <= x67 <= 1
 0 <= x68 <= 1
 0 <= x69 <= 1
 0 <= x70 <= 1
 0 <= x71 <= 1
 0 <= x72 <= 1
 0 <= x73 <= 1
 0 <= x74 <= 1
 0 <= x75 <= 1
 0 <= x76 <= 1
 0 <= x77 <= 1
 0 <= x78 <= 1
 0 <= x79 <= 1
 0 <= x80 <= 1
 0 <= x81 <= 1
 0 <= x82 <= 1
 0 <= x83 <= 1
 0 <= x84 <= 1
 0 <= x85 <= 1
 0 <= x86 <= 1
 0 <= x87 <= 1
 0 <= x88 <= 1
 0 <= x89 <= 1
 0 <= x90 <= 1
 0 <= x91 <= 1
 0 <= x92 <= 1
 0 <= x93 <= 1
 0 <= x94 <= 1
 0 <= x95 <= 1
 0 <= x96 <= 1
 0 <= x97 <= 1
 0 <= x98 <= 1
 0 <= x99 <= 1
 0 <= x100 <= 1
 0 <= x101 <= 1
 0 <= x102 <= 1
 0 <= x103 <= 1
 0 <= x104 <= 1
 0 <= x105 <= 1
 0 <= x106 <= 1
 0 <= x107 <= 1
 0 <= x108 <= 1
 0 <= x109 <= 1
 0 <= x110 <= 1
 0 <= x111 <= 1
 0 <= x112 <= 1
 0 <= x113 <= 1
 0 <= x114 <= 1
 0 <= x115 <= 1
 0 <= x116 <= 1
 0 <= x117 <= 1
 0 <= x118 <= 1
 0 <= x119 <= 1
 0 <= x120 <= 1
 0 <= x121 <= 1
 0 <= x122 <= 1
 0 <= x123 <= 1
 0 <= x124 <= 1
 0 <= x125 <= 1
 0 <= x126 <= 1
 0 <= x127 <= 1
 0 <= x128 <= 1
 0 <= x129 <= 1
 0 <= x130 <= 1
 0 <= x131 <= 1
 0 <= x132 <= 1
 0 <= x133 <= 1
 0 <= x134 <= 1
 0 <= x135 <= 1
 0 <= x136 <= 1
 0 <= x137 <= 1
 0 <= x138 <= 1
 0 <= x139 <= 1
 0 <= x140 <= 1
 0 <= x141 <= 1
 0 <= x142 <= 1
 0 <= x143 <= 1
 0 <= x144 <= 1
 0 <= x145 <= 1
 0 <= x146 <= 1
 0 <= x147 <= 1
 0 <= x148 <= 1
 0 <= x149 <= 1
 0 <= x150 <= 1
 0 <= x151 <= 1
 0 <= x152 <= 1
 0 <= x153 <= 1
 0 <= x154 <= 1
 0 <= x155 <= 1
 0 <= x156 <= 1
 0 <= x157 <= 1
 0 <= x158 <= 1
 0 <= x159 <= 1
 0 <= x160 <= 1
 0 <= x161 <= 1
 0 <= x162 <= 1
 0 <= x163 <= 1
 0 <= x164 <= 1
 0 <= x165 <= 1
 0 <= x166 <= 1
 0 <= x167 <= 1
 0 <= x168 <= 1
 0 <= x169 <= 1
 0 <= x170 <= 1
 0 <= x171 <= 1
 0 <= x172 <= 1
 0 <= x173 <= 1
 0 <= x174 <= 1
 0 <= x175 <= 1
 0 <= x176 <= 1
 0 <= x177 <= 1
 0 <= x178 <= 1
 0 <= x179 <= 1
 0 <= x180 <= 1
 0 <= x181 <= 1
 0 <= x182 <= 1
 0 <= x183 <= 1
 0 <= x184 <= 1
 0 <= x185 <= 1
 0 <= x186 <= 1
 0 <= x187 <= 1
 0 <= x188 <= 1
 0 <= x189 <= 1
 0 <= x190 <= 1
 0 <= x191 <= 1
 0 <= x192 <= 1
 0 <= x193 <= 1
 0 <= x194 <= 1
 0 <= x195 <= 1
 0 <= x196 <= 1
 0 <= x197 <= 1
 0 <= x198 <= 1
 0 <= x199 <= 1
 0 <= x200 <= 1
 0 <= x201 <= 1
 0 <= x202 <= 1
 0 <= x203 <= 1
 0 <= x204 <= 1
 0 <= x205 <= 1
 0 <= x206 <= 1
 0 <= x207 <= 1
 0 <= x208 <= 1
 0 <= x209 <= 1
 0 <= x210 <= 1
 0 <= x211 <= 1
 0 <= x212 <= 1
 0 <= x213 <= 1
 0 <= x214 <= 1
 0 <= x215 <= 1
 0 <= x216 <= 1
 0 <= x217 <= 1
 0 <= x218 <= 1
 0 <= x219 <= 1
 0 <= x220 <= 1
 0 <= x221 <= 1
 0 <= x222 <= 1
 0 <= x223 <= 1
 0 <= x224 <= 1
 0 <= x225 <= 1
 0 <= x226 <= 1
 0 <= x227 <= 1
 0 <= x228 <= 1
 0 <= x229 <= 1
 0 <= x230 <= 1
 0 <= x231 <= 1
 0 <= x232 <= 1
 0 <= x233 <= 1
 0 <= x234 <= 1
 0 <= x235 <= 1
 0 <= x236 <= 1
 0 <= x237 <= 1
 0 <= x238 <= 1
 0 <= x239 <= 1
 0 <= x240 <= 1
 0 <= x241 <= 1
 0 <= x242 <= 1
 0 <= x243 <= 1
 0 <= x244 <= 1
 0 <= x245 <= 1
 0 <= x246 <= 1
 0 <= x247 <= 1
 0 <= x248 <= 1
 0 <= x249 <= 1
 0 <= x250 <= 1
 0 <= x251 <= 1
 0 <= x252 <= 1
 0 <= x253 <= 1
 0 <= x254 <= 1
 0 <= x255 <= 1
 0 <= x256 <= 1
 0 <= x257 <= 1
 0 <= x258 <= 1
 0 <= x259 <= 1
 0 <= x260 <= 1
 0 <= x261 <= 1
 0 <= x262 <= 1
 0 <= x263 <= 1
 0 <= x264 <= 1
 0 <= x265 <= 1
 0 <= x266 <= 1
 0 <= x267 <= 1
 0 <= x268 <= 1
 0 <= x269 <= 1
 0 <= x270 <= 1
 0 <= x271 <= 1
 0 <= x272 <= 1
 0 <= x273 <= 1
 0 <= x274 <= 1
 0 <= x275 <= 1
 0 <= x276 <= 1
 0 <= x277 <= 1
 0 <= x278 <= 1
 0 <= x279 <= 1
 0 <= x280 <= 1
 0 <= x281 <= 1
 0 <= x282 <= 1
 0 <= x283 <= 1
 0 <= x284 <= 1
 0 <= x285 <= 1
 0 <= x286 <= 1
 0 <= x287 <= 1
 0 <= x288 <= 1
 0 <= x289 <= 1
 0 <= x290 <= 1
 0 <= x291 <= 1
 0 <= x292 <= 1
 0 <= x293 <= 1
 0 <= x294 <= 1
 0 <= x295 <= 1
 0 <= x296 <= 1
 0 <= x297 <= 1
 0 <= x299 <= 1
 0 <= x300 <= 1
 0 <= x301 <= 1
 0 <= x302 <= 1
 0 <= x304 <= 1
 0 <= x305 <= 1
 0 <= x306 <= 1
 0 <= x307 <= 1
 0 <= x309 <= 1
 0 <= x310 <= 1
 0 <= x311 <= 1
 0 <= x312 <= 1
 0 <= x314 <= 1
 0 <= x315 <= 1
 0 <= x316 <= 1
 0 <= x317 <= 1
 0 <= x319 <= 1
 0 <= x320 <= 1
 0 <= x321 <= 1
 0 <= x322 <= 1
Integers
x0 x1 x2 x3 x4 x5 x6 x7 x8 x9 
x10 x11 x12 x13 x14 x15 x16 x17 x18 x19 
x20 x21 x22 x23 x24 x25 x26 x27 x28 x29 
x30 x31 x32 x33 x34 x35 x36 x37 x38 x39 
x40 x41 x42 x43 x44 x45 x46 x47 x48 x49 
x50 x51 x52 x53 x54 x55 x56 x57 x58 x59 
x60 x61 x62 x63 x64 x65 x66 x67 x68 x69 
x70 x71 x72 x73 x74 x75 x76 x77 x78 x79 
x80 x81 x82 x83 x84 x85 x86 x87 x88 x89 
x90 x91 x92 x93 x94 x95 x96 x97 x98 x99 
x100 x101 x102 x103 x104 x105 x106 x107 x108 x109 
x110 x111 x112 x113 x114 x115 x116 x117 x118 x119 
x120 x121 x122 x123 x124 x125 x126 x127 x128 x129 
x130 x131 x132 x133 x134 x135 x136 x137 x138 x139 
x140 x141 x142 x143 x144 x145 x146 x147 x148 x149 
x150 x151 x152 x153 x154 x155 x156 x157 x158 x159 
x160 x161 x162 x163 x164 x165 x166 x167 x168 x169 
x170 x171 x172 x173 x174 x175 x176 x177 x178 x179 
x180 x181 x182 x183 x184 x185 x186 x187 x188 x189 
x190 x191 x192 x193 x194 x195 x196 x197 x198 x199 
x200 x201 x202 x203 x204 x205 x206 x207 x208 x209 
x210 x211 x212 x213 x214 x215 x216 x217 x218 x219 
x220 x221 x222 x223 x224 x225 x226 x227 x228 x229 
x230 x231 x232 x233 x234 x235 x236 x237 x238 x239 
x240 x241 x242 x243 x244 x245 x246 x247 x248 x249 
x250 x251 x252 x253 x254 x255 x256 x257 x258 x259 
x260 x261 x262 x263 x264 x265 x266 x267 x268 x269 
x270 x271 x272 x273 x274 x275 x276 x277 x278 x279 
x280 x281 x282 x283 x284 x285 x286 x287 x288 x289 
x290 x291 x292 x293 x294 x295 x296 x297 x299 x300 
x301 x302 x304 x305 x306 x307 x309 x310 x311 x312 
x314 x315 x316 x317 x319 x320 x321 x322 
End
